20	100	100	100
2	100	100
6	100	100
17	100	100
41	100	100
23	100	100
41	100	100
15	100	100
41	100	100
45	100	100
14	100	100
32	100	100
18	100	100
4	100	100
28	100	100
49	100	100
31	100	100
13	100	100
23	100	100
30	100	100
46	100	100
